; benchmark generated from python API
(set-info :status unknown)
(declare-fun S_1 () Real)
(declare-fun A_3 () Real)
(declare-fun S_4 () Real)
(declare-fun S_3 () Real)
(declare-fun L_1 () Real)
(declare-fun S_0 () Real)
(declare-fun S_2 () Real)
(declare-fun A_0 () Real)
(declare-fun L_0 () Real)
(declare-fun L0 () Real)
(declare-fun A_4 () Real)
(declare-fun A_2 () Real)
(declare-fun A_1 () Real)
(assert
 (let (($x3942 (<= (+ L_1 (* (- (/ 1.0 2.0)) S_3) S_4 (* (- 1.0) A_3) (* (/ 1.0 2.0) S_0)) 0.0)))
 (let (($x2540 (<= (+ L_0 (* 2.0 S_1) (* (- 1.0) S_3) (* (- 1.0) A_0)) 0.0)))
 (let (($x3915 (<= (+ S_1 (* (- 1.0) S_3)) (- 5.0))))
 (let (($x37 (>= L0 0.0)))
 (let (($x1405 (<= (+ L_0 S_0 (* (- 1.0) A_0)) 0.0)))
 (let (($x918 (>= S_4 (+ A_3 (* (- 1.0) L_1)))))
 (let (($x2173 (or (<= (+ (* (- 1.0) S_4) (* (- 1.0) S_0) (* 2.0 S_1)) 0.0) $x918)))
 (let (($x2541 (or (<= (+ (* 4.0 S_2) (* (- 3.0) S_4) (* (- 1.0) S_0)) 0.0) $x918)))
 (let (($x6705 (<= (+ L_0 (* 3.0 S_2) (* (- 2.0) S_4) (* (- 1.0) A_0)) 0.0)))
 (let (($x2245 (or (<= (+ (* 3.0 S_2) (* (- 2.0) S_4) (* (- 1.0) S_1)) 0.0) $x918)))
 (let ((?x226 (* (- 1.0) A_4)))
 (let ((?x218 (* (- 1.0) S_3)))
 (let ((?x1263 (* (- 1.0) A_1)))
 (let (($x54 (= L_1 L_0)))
 (let (($x684 (<= (+ L_0 (* (- (/ 1.0 2.0)) S_4) (* (- 1.0) A_0) (* (/ 3.0 2.0) S_1)) 0.0)))
 (let (($x7289 (or $x54 (<= (+ L_1 ?x1263 A_2 (* (- 1.0) S_2) S_4 ?x226 S_0) 0.0))))
 (let (($x3203 (<= (+ L_1 ?x1263 A_2 (* (- (/ 1.0 2.0)) S_3) S_4 ?x226 (* (/ 1.0 2.0) S_0)) 0.0)))
 (let (($x548 (not (<= (+ A_1 (* (- 1.0) L_1)) S_3))))
 (let (($x117 (>= S_3 S_2)))
 (let (($x882 (or $x54 (not (<= L_1 L_0)))))
 (let (($x125 (>= A_4 A_3)))
 (let (($x124 (>= A_3 A_2)))
 (let (($x123 (>= A_2 A_1)))
 (let (($x120 (>= S_4 S_3)))
 (let (($x114 (>= S_2 S_1)))
 (let (($x111 (>= S_1 S_0)))
 (let (($x36 (>= L_0 L0)))
 (let ((?x529 (* (- 1.0) L_0)))
 (let ((?x571 (+ A_0 ?x529)))
 (let (($x958 (<= ?x571 S_3)))
 (let (($x2650 (<= S_4 (+ A_4 (* (- 1.0) L_1)))))
 (and $x2650 $x958 $x36 $x111 $x114 $x120 $x123 $x124 $x125 $x882 $x117 $x548 (or $x54 $x3203) $x7289 (or (<= (+ (* (- (/ 1.0 3.0)) S_4) (* (/ 1.0 3.0) S_0)) (- 5.0)) $x918) (or (<= (+ (* (- (/ 1.0 2.0)) S_4) (* (/ 1.0 2.0) S_1)) (- 5.0)) $x918) (or $x684 $x918) (or $x54 (<= (+ L_1 ?x1263 A_2 ?x218 S_4 ?x226 S_1) 0.0)) (or (<= (+ S_2 (* (- 1.0) S_4)) (- 5.0)) $x918) $x2245 (or $x6705 $x918) $x2541 $x2173 $x1405 $x37 $x3915 $x2540 (<= (+ (* 2.0 S_1) S_4 (* (- 3.0) S_3)) 0.0) (<= (+ (* (- (/ 1.0 2.0)) S_3) (* (/ 1.0 2.0) S_0)) (- 5.0)) (<= (+ (* (- 2.0) S_3) S_4 S_0) 0.0) (<= (+ (* (- 1.0) S_2) S_0) (- 5.0)) (<= (+ S_4 (* (- 4.0) S_2) (* 3.0 S_0)) 0.0) $x3942 (<= (+ (* (- 3.0) S_2) S_3 (* 2.0 S_0)) 0.0) (<= (+ L_1 (* (- 1.0) S_2) S_4 (* (- 1.0) A_3) S_0) 0.0) (<= (+ (* 3.0 S_1) (* (- 2.0) S_3) (* (- 1.0) S_0)) 0.0) (<= (+ L_1 ?x218 S_4 (* (- 1.0) A_3) S_1) 0.0))))))))))))))))))))))))))))))))))
(check-sat)
